MST02
Position Depot: Center
Horizon for Depot: Small
Position of customers: Mixt
Distribution of the demand: Medium
Width of time windows: Tight
Distribution of the service: Small

VEHICLE 
NUMBER 	 CAPACITY 
 16 	 	 102 
 
CUSTOMER
CUST NO. 	 XCOORD.  	 YCOORD. 	 DEMAND 	 READY TIME 	 DUE DATE 	 SERVICE TIME 
 0 	 	 500 	 	 500 	 	 0 	 	 0 	 	 2452 	 	 0 
  1 	 	 151 	 	 220 	 	 1 	 	 797 	 	 978 	 	 76 
  2 	 	 909 	 	 337 	 	 5 	 	 630 	 	 717 	 	 64 
  3 	 	 211 	 	 151 	 	 4 	 	 2363 	 	 2452 	 	 76 
  4 	 	 944 	 	 341 	 	 9 	 	 436 	 	 518 	 	 87 
  5 	 	 947 	 	 201 	 	 10 	 	 721 	 	 809 	 	 81 
  6 	 	 229 	 	 172 	 	 3 	 	 1659 	 	 1764 	 	 54 
  7 	 	 173 	 	 266 	 	 5 	 	 299 	 	 442 	 	 79 
  8 	 	 812 	 	 236 	 	 9 	 	 460 	 	 644 	 	 62 
  9 	 	 384 	 	 43 	 	 10 	 	 323 	 	 518 	 	 77 
  10 	 	 200 	 	 154 	 	 7 	 	 1306 	 	 1413 	 	 63 
  11 	 	 88 	 	 178 	 	 9 	 	 1461 	 	 1600 	 	 82 
  12 	 	 205 	 	 151 	 	 55 	 	 2149 	 	 2237 	 	 67 
  13 	 	 271 	 	 29 	 	 3 	 	 634 	 	 691 	 	 92 
  14 	 	 898 	 	 327 	 	 8 	 	 1468 	 	 1553 	 	 62 
  15 	 	 924 	 	 365 	 	 8 	 	 431 	 	 489 	 	 83 
  16 	 	 150 	 	 145 	 	 5 	 	 479 	 	 548 	 	 87 
  17 	 	 950 	 	 375 	 	 3 	 	 2158 	 	 2330 	 	 83 
  18 	 	 997 	 	 365 	 	 6 	 	 1346 	 	 1500 	 	 65 
  19 	 	 42 	 	 312 	 	 7 	 	 1049 	 	 1103 	 	 68 
  20 	 	 105 	 	 183 	 	 9 	 	 2270 	 	 2321 	 	 67 
  21 	 	 221 	 	 128 	 	 82 	 	 1406 	 	 1487 	 	 92 
  22 	 	 912 	 	 330 	 	 4 	 	 2000 	 	 2081 	 	 100 
  23 	 	 893 	 	 334 	 	 1 	 	 1514 	 	 1603 	 	 50 
  24 	 	 55 	 	 285 	 	 2 	 	 453 	 	 543 	 	 99 
  25 	 	 251 	 	 146 	 	 71 	 	 461 	 	 569 	 	 78 
  26 	 	 611 	 	 707 	 	 5 	 	 1652 	 	 1757 	 	 60 
  27 	 	 368 	 	 873 	 	 6 	 	 416 	 	 569 	 	 55 
  28 	 	 407 	 	 285 	 	 5 	 	 163 	 	 328 	 	 71 
  29 	 	 257 	 	 631 	 	 7 	 	 333 	 	 408 	 	 84 
  30 	 	 370 	 	 120 	 	 84 	 	 1289 	 	 1353 	 	 75 
  31 	 	 129 	 	 48 	 	 77 	 	 2032 	 	 2214 	 	 64 
  32 	 	 499 	 	 93 	 	 10 	 	 685 	 	 866 	 	 63 
  33 	 	 286 	 	 775 	 	 84 	 	 2150 	 	 2226 	 	 97 
  34 	 	 276 	 	 284 	 	 6 	 	 2098 	 	 2224 	 	 84 
  35 	 	 767 	 	 896 	 	 3 	 	 1539 	 	 1733 	 	 65 
  36 	 	 617 	 	 940 	 	 5 	 	 1420 	 	 1508 	 	 86 
  37 	 	 732 	 	 361 	 	 4 	 	 1861 	 	 1982 	 	 93 
  38 	 	 591 	 	 780 	 	 6 	 	 270 	 	 323 	 	 63 
  39 	 	 512 	 	 429 	 	 6 	 	 1504 	 	 1593 	 	 87 
  40 	 	 277 	 	 931 	 	 5 	 	 375 	 	 533 	 	 80 
  41 	 	 834 	 	 888 	 	 6 	 	 760 	 	 891 	 	 61 
  42 	 	 620 	 	 539 	 	 10 	 	 329 	 	 519 	 	 84 
  43 	 	 181 	 	 881 	 	 93 	 	 405 	 	 546 	 	 99 
  44 	 	 388 	 	 611 	 	 4 	 	 2003 	 	 2103 	 	 81 
  45 	 	 210 	 	 953 	 	 68 	 	 2374 	 	 2452 	 	 60 
  46 	 	 858 	 	 543 	 	 10 	 	 958 	 	 1053 	 	 60 
  47 	 	 971 	 	 552 	 	 4 	 	 514 	 	 616 	 	 84 
  48 	 	 53 	 	 907 	 	 59 	 	 1526 	 	 1586 	 	 79 
  49 	 	 783 	 	 766 	 	 6 	 	 1352 	 	 1442 	 	 83 
  50 	 	 223 	 	 168 	 	 6 	 	 2029 	 	 2100 	 	 50 
 